(set-info :smt-lib-version 2.6)
(set-logic QF_NIA)
(set-info :source |
Generated by: Cristina Borralleras, Daniel Larraz, Albert Oliveras, Enric Rodriguez-Carbonell, Albert Rubio
Generated on: 2017-04-27
Generator: VeryMax
Application: Termination proving
Target solver: barcelogic
|)
(set-info :license "https://creativecommons.org/licenses/by/4.0/")
(set-info :category "industrial")
(set-info :status unsat)
(declare-fun Nl1x^01 () Int)
(declare-fun Nl1y^01 () Int)
(declare-fun Nl1z^01 () Int)
(declare-fun lam0n0 () Int)
(declare-fun Nl1CT1 () Int)
(declare-fun lam1n0 () Int)
(declare-fun lam2n0 () Int)
(declare-fun lam3n0 () Int)
(declare-fun lam4n0 () Int)
(declare-fun x^0 () Int)
(declare-fun y^0 () Int)
(declare-fun z^0 () Int)
(declare-fun lam8n0 () Int)
(declare-fun RFN1_CT () Int)
(declare-fun RFN1_x^0 () Int)
(declare-fun RFN1_y^0 () Int)
(declare-fun RFN1_z^0 () Int)
(declare-fun lam12n0 () Int)
(declare-fun lam6n0 () Int)
(declare-fun lam7n0 () Int)
(declare-fun lam10n0 () Int)
(declare-fun lam11n0 () Int)
(declare-fun lam5n0 () Int)
(declare-fun lam9n0 () Int)
(assert ( and ( <= ( - 2 ) Nl1x^01 ) ( <= Nl1x^01 2 ) ( <= ( - 2 ) Nl1y^01 ) ( <= Nl1y^01 2 ) ( <= ( - 2 ) Nl1z^01 ) ( <= Nl1z^01 2 ) ))
(assert ( or ( and ( >= lam0n0 0 ) ( > ( + ( * Nl1CT1 lam0n0 ) ( - 1 ) ) 0 ) ( = ( * Nl1x^01 lam0n0 ) 0 ) ( = ( * Nl1y^01 lam0n0 ) 0 ) ( = ( * Nl1z^01 lam0n0 ) 0 ) ) ( and ( >= lam1n0 0 ) ( > ( + ( * Nl1CT1 lam1n0 ) ( - 1 ( + ( + Nl1CT1 ( * Nl1x^01 0 ) ) ( * Nl1y^01 ( - 2 ) ) ) ) ) 0 ) ( = ( + ( * Nl1x^01 lam1n0 ) ( - ( + 0 ( * Nl1x^01 1 ) ) ) ) 0 ) ( = ( + ( * Nl1y^01 lam1n0 ) ( - ( + ( + 0 ( * Nl1x^01 1 ) ) ( * Nl1y^01 1 ) ) ) ) 0 ) ( = ( + ( * Nl1z^01 lam1n0 ) ( - ( + 0 Nl1z^01 ) ) ) 0 ) ) ))
(assert ( or ( and ( >= lam2n0 0 ) ( > ( + ( * Nl1CT1 lam2n0 ) ( - 1 ) ) 0 ) ( = ( * Nl1x^01 lam2n0 ) 0 ) ( = ( * Nl1y^01 lam2n0 ) 0 ) ( = ( * Nl1z^01 lam2n0 ) 0 ) ) ( and ( >= lam3n0 0 ) ( > ( + ( * Nl1CT1 lam3n0 ) ( - 1 ( + ( + ( + Nl1CT1 ( * Nl1x^01 0 ) ) ( * Nl1y^01 1 ) ) ( * Nl1z^01 ( - 2 ) ) ) ) ) 0 ) ( = ( + ( * Nl1x^01 lam3n0 ) ( - ( + 0 ( * Nl1x^01 1 ) ) ) ) 0 ) ( = ( + ( * Nl1y^01 lam3n0 ) ( - ( + 0 ( * Nl1y^01 1 ) ) ) ) 0 ) ( = ( + ( * Nl1z^01 lam3n0 ) ( - ( + ( + 0 ( * Nl1x^01 1 ) ) ( * Nl1z^01 1 ) ) ) ) 0 ) ) ))
(assert ( and ( <= ( * ( - 1 ) x^0 ) 0 ) ( <= ( + Nl1CT1 ( * ( + 0 Nl1x^01 ) x^0 ) ( * ( + 0 Nl1y^01 ) y^0 ) ( * ( + 0 Nl1z^01 ) z^0 ) ) 0 ) ))
(assert ( or ( and ( and ( and ( >= lam8n0 0 ) ( > ( + ( * Nl1CT1 lam8n0 ) ( - 1 ( - ( + ( + RFN1_CT ( * RFN1_x^0 0 ) ) ( * RFN1_y^0 ( - 2 ) ) ) RFN1_CT ) ) ) 0 ) ( = ( + ( * Nl1x^01 lam8n0 ) ( - ( - ( + 0 ( * RFN1_x^0 1 ) ) RFN1_x^0 ) ) ) 0 ) ( = ( + ( * Nl1y^01 lam8n0 ) ( - ( - ( + ( + 0 ( * RFN1_x^0 1 ) ) ( * RFN1_y^0 1 ) ) RFN1_y^0 ) ) ) 0 ) ( = ( + ( * Nl1z^01 lam8n0 ) ( - ( - ( + 0 RFN1_z^0 ) RFN1_z^0 ) ) ) 0 ) ) ( and ( >= lam12n0 0 ) ( > ( + ( * Nl1CT1 lam12n0 ) ( - 1 ( - ( + ( + ( + RFN1_CT ( * RFN1_x^0 0 ) ) ( * RFN1_y^0 1 ) ) ( * RFN1_z^0 ( - 2 ) ) ) RFN1_CT ) ) ) 0 ) ( = ( + ( * Nl1x^01 lam12n0 ) ( - ( - ( + 0 ( * RFN1_x^0 1 ) ) RFN1_x^0 ) ) ) 0 ) ( = ( + ( * Nl1y^01 lam12n0 ) ( - ( - ( + 0 ( * RFN1_y^0 1 ) ) RFN1_y^0 ) ) ) 0 ) ( = ( + ( * Nl1z^01 lam12n0 ) ( - ( - ( + ( + 0 ( * RFN1_x^0 1 ) ) ( * RFN1_z^0 1 ) ) RFN1_z^0 ) ) ) 0 ) ) ) ( or ( and ( and ( >= lam6n0 0 ) ( > ( + ( * Nl1CT1 lam6n0 ) ( - 1 ( - RFN1_CT ) ) ) 0 ) ( = ( + ( * Nl1x^01 lam6n0 ) ( - ( - RFN1_x^0 ) ) ) 0 ) ( = ( + ( * Nl1y^01 lam6n0 ) ( - ( - RFN1_y^0 ) ) ) 0 ) ( = ( + ( * Nl1z^01 lam6n0 ) ( - ( - RFN1_z^0 ) ) ) 0 ) ) ( and ( >= lam7n0 0 ) ( > ( + ( * Nl1CT1 lam7n0 ) ( - 1 ( + ( - ( + ( + RFN1_CT ( * RFN1_x^0 0 ) ) ( * RFN1_y^0 ( - 2 ) ) ) RFN1_CT ) 1 ) ) ) 0 ) ( = ( + ( * Nl1x^01 lam7n0 ) ( - ( - ( + 0 ( * RFN1_x^0 1 ) ) RFN1_x^0 ) ) ) 0 ) ( = ( + ( * Nl1y^01 lam7n0 ) ( - ( - ( + ( + 0 ( * RFN1_x^0 1 ) ) ( * RFN1_y^0 1 ) ) RFN1_y^0 ) ) ) 0 ) ( = ( + ( * Nl1z^01 lam7n0 ) ( - ( - ( + 0 RFN1_z^0 ) RFN1_z^0 ) ) ) 0 ) ) ) ( and ( and ( >= lam10n0 0 ) ( > ( + ( * Nl1CT1 lam10n0 ) ( - 1 ( - RFN1_CT ) ) ) 0 ) ( = ( + ( * Nl1x^01 lam10n0 ) ( - ( - RFN1_x^0 ) ) ) 0 ) ( = ( + ( * Nl1y^01 lam10n0 ) ( - ( - RFN1_y^0 ) ) ) 0 ) ( = ( + ( * Nl1z^01 lam10n0 ) ( - ( - RFN1_z^0 ) ) ) 0 ) ) ( and ( >= lam11n0 0 ) ( > ( + ( * Nl1CT1 lam11n0 ) ( - 1 ( + ( - ( + ( + ( + RFN1_CT ( * RFN1_x^0 0 ) ) ( * RFN1_y^0 1 ) ) ( * RFN1_z^0 ( - 2 ) ) ) RFN1_CT ) 1 ) ) ) 0 ) ( = ( + ( * Nl1x^01 lam11n0 ) ( - ( - ( + 0 ( * RFN1_x^0 1 ) ) RFN1_x^0 ) ) ) 0 ) ( = ( + ( * Nl1y^01 lam11n0 ) ( - ( - ( + 0 ( * RFN1_y^0 1 ) ) RFN1_y^0 ) ) ) 0 ) ( = ( + ( * Nl1z^01 lam11n0 ) ( - ( - ( + ( + 0 ( * RFN1_x^0 1 ) ) ( * RFN1_z^0 1 ) ) RFN1_z^0 ) ) ) 0 ) ) ) ) ) ( or ( and ( >= lam5n0 0 ) ( > ( + ( * Nl1CT1 lam5n0 ) ( - 1 ) ) 0 ) ( = ( * Nl1x^01 lam5n0 ) 0 ) ( = ( * Nl1y^01 lam5n0 ) 0 ) ( = ( * Nl1z^01 lam5n0 ) 0 ) ) ( and ( >= lam9n0 0 ) ( > ( + ( * Nl1CT1 lam9n0 ) ( - 1 ) ) 0 ) ( = ( * Nl1x^01 lam9n0 ) 0 ) ( = ( * Nl1y^01 lam9n0 ) 0 ) ( = ( * Nl1z^01 lam9n0 ) 0 ) ) ) ))
(check-sat)
(exit)
